#Total component number
param pI := 10;

#Time horizon
param pT := 10;

#Number of Scenarios
param NUMSCEN := 100;

#Probablity of each Scenario. Equally distributed
param prob := 0.01;

#Extended time horizon
param pT_ex := 50;

#Starting time
param ps := 2;

#Number of individuals. R=T+2
param pR := 12;

#Setup cost
param pd := 5;

param pCPR := 
1 1
2 1
3 1
4 1
5 1
6 1
7 1
8 1
9 1
10 1
;

param pCCR := 
1 11.4
2 9.1
3 8.0
4 11.1
5 14.2
6 7.4
7 9.8
8 14.6
9 14.5
10 12.0
;

param pKesi := 
1 1
2 0
3 0
4 0
5 0
6 0
7 0
8 0
9 0
10 0
;

param w_shape := 
1 5.7
2 6.7
3 5.6
4 5.4
5 5.5
6 4.9
7 6.7
8 4.8
9 4.6
10 4.4
;

param w_scale := 
1 7.3
2 4.2
3 3.2
4 2.9
5 2.0
6 4.6
7 6.4
8 1.9
9 2.0
10 1.3
;

param x := 
1 1
2 0
3 0
4 0
5 0
6 0
7 0
8 0
9 0
10 0
;

#pLT is two-dimensional [i,r]=[component, individual]
#[i,*] means all data in row i.

param pLT := 
[1,*]
1  0    2  4    3  7    4  8    5  7    6  5    7  7    8  7    9  5    10 5    
11 8    12 7    

[2,*]
1  1    2  4    3  4    4  4    5  3    6  4    7  4    8  3    9  3    10 4    
11 4    12 3    

[3,*]
1  1    2  3    3  3    4  2    5  3    6  3    7  2    8  2    9  3    10 3    
11 2    12 3    

[4,*]
1  1    2  3    3  2    4  2    5  2    6  2    7  2    8  3    9  3    10 2    
11 3    12 2    

[5,*]
1  1    2  1    3  1    4  1    5  1    6  1    7  2    8  2    9  1    10 2    
11 1    12 1    

[6,*]
1  1    2  4    3  4    4  3    5  3    6  5    7  4    8  4    9  5    10 4    
11 3    12 5    

[7,*]
1  4    2  6    3  5    4  5    5  7    6  6    7  6    8  7    9  6    10 5    
11 6    12 5    

[8,*]
1  1    2  1    3  1    4  2    5  2    6  1    7  2    8  1    9  1    10 2    
11 1    12 2    

[9,*]
1  1    2  1    3  2    4  2    5  1    6  2    7  1    8  1    9  2    10 1    
11 2    12 1    

[10,*]
1  1    2  1    3  1    4  1    5  1    6  1    7  1    8  1    9  1    10 1    
11 1    12 1    
;